(set-logic QF_UF)
(declare-fun A0 () Bool)
(declare-fun A1 () Bool)
(declare-fun A2 () Bool)
(declare-fun A3 () Bool)
(declare-fun A7 () Bool)
(declare-fun A8 () Bool)
(declare-fun A9 () Bool)
(declare-fun A10 () Bool)
(declare-fun A11 () Bool)
(declare-fun A12 () Bool)
(declare-fun A13 () Bool)
(declare-fun A14 () Bool)
(declare-fun A15 () Bool)
(declare-fun A16 () Bool)
(declare-fun A17 () Bool)
(declare-fun A18 () Bool)
(declare-fun A19 () Bool)
(declare-fun A20 () Bool)
(declare-fun A21 () Bool)
(declare-fun A22 () Bool)
(declare-fun A23 () Bool)
(declare-fun A24 () Bool)
(assert (let ((.def_0 (and A15 A11))) (let ((.def_1 (not A16))) (let ((.def_2 (= A8 .def_1))) (let ((.def_3 (not .def_2))) (let ((.def_4 (and .def_3 .def_0))) (let ((.def_5 (not A8))) (let ((.def_6 (and A23 .def_5))) (let ((.def_7 (not .def_6))) (let ((.def_8 (and A20 .def_1))) (let ((.def_9 (not .def_8))) (let ((.def_10 (and .def_9 .def_7))) (let ((.def_11 (and .def_10 .def_4))) (let ((.def_12 (not .def_11))) (let ((.def_13 (or A17 A20))) (let ((.def_14 (not .def_13))) (let ((.def_15 (not A3))) (let ((.def_16 (not A22))) (let ((.def_17 (= .def_16 .def_15))) (let ((.def_18 (and .def_17 .def_14))) (let ((.def_19 (not .def_18))) (let ((.def_20 (not A11))) (let ((.def_21 (and A21 .def_20))) (let ((.def_22 (or A12 A14))) (let ((.def_23 (not .def_22))) (let ((.def_24 (and .def_23 .def_21))) (let ((.def_25 (and .def_24 .def_19))) (let ((.def_26 (not .def_25))) (let ((.def_27 (and .def_26 .def_12))) (let ((.def_28 (not A9))) (let ((.def_29 (and .def_28 A18))) (let ((.def_30 (not .def_29))) (let ((.def_31 (not A17))) (let ((.def_32 (not A1))) (let ((.def_33 (and .def_32 .def_31))) (let ((.def_34 (not .def_33))) (let ((.def_35 (or .def_34 .def_30))) (let ((.def_36 (not .def_35))) (let ((.def_37 (and A0 .def_16))) (let ((.def_38 (not .def_37))) (let ((.def_39 (not A21))) (let ((.def_40 (or .def_39 .def_5))) (let ((.def_41 (not .def_40))) (let ((.def_42 (and .def_41 .def_38))) (let ((.def_43 (and .def_42 .def_36))) (let ((.def_44 (not A18))) (let ((.def_45 (not A23))) (let ((.def_46 (= .def_45 .def_44))) (let ((.def_47 (and .def_39 .def_44))) (let ((.def_48 (not .def_47))) (let ((.def_49 (or .def_48 .def_46))) (let ((.def_50 (not A20))) (let ((.def_51 (and .def_16 .def_50))) (let ((.def_52 (not .def_51))) (let ((.def_53 (not A2))) (let ((.def_54 (or .def_53 A12))) (let ((.def_55 (= .def_54 .def_52))) (let ((.def_56 (or .def_55 .def_49))) (let ((.def_57 (and .def_56 .def_43))) (let ((.def_58 (and .def_57 .def_27))) (let ((.def_59 (not A7))) (let ((.def_60 (or .def_59 .def_39))) (let ((.def_61 (not A14))) (let ((.def_62 (and .def_50 .def_61))) (let ((.def_63 (or .def_62 .def_60))) (let ((.def_64 (not .def_63))) (let ((.def_65 (not A0))) (let ((.def_66 (not A15))) (let ((.def_67 (or .def_66 .def_65))) (let ((.def_68 (not A12))) (let ((.def_69 (and A1 .def_68))) (let ((.def_70 (not .def_69))) (let ((.def_71 (or .def_70 .def_67))) (let ((.def_72 (not .def_71))) (let ((.def_73 (and .def_72 .def_64))) (let ((.def_74 (or A10 A19))) (let ((.def_75 (not .def_74))) (let ((.def_76 (and .def_53 A22))) (let ((.def_77 (and .def_76 .def_75))) (let ((.def_78 (not A24))) (let ((.def_79 (or .def_78 A21))) (let ((.def_80 (not .def_79))) (let ((.def_81 (or .def_28 .def_28))) (let ((.def_82 (not .def_81))) (let ((.def_83 (and .def_82 .def_80))) (let ((.def_84 (not .def_83))) (let ((.def_85 (or .def_84 .def_77))) (let ((.def_86 (= .def_85 .def_73))) (let ((.def_87 (and .def_5 A18))) (let ((.def_88 (not .def_87))) (let ((.def_89 (= .def_39 .def_65))) (let ((.def_90 (not .def_89))) (let ((.def_91 (or .def_90 .def_88))) (let ((.def_92 (not A13))) (let ((.def_93 (or A9 .def_92))) (let ((.def_94 (not .def_93))) (let ((.def_95 (and A24 .def_16))) (let ((.def_96 (or .def_95 .def_94))) (let ((.def_97 (not .def_96))) (let ((.def_98 (and .def_97 .def_91))) (let ((.def_99 (and .def_92 A1))) (let ((.def_100 (not .def_99))) (let ((.def_101 (or .def_39 A8))) (let ((.def_102 (not .def_101))) (let ((.def_103 (or .def_102 .def_100))) (let ((.def_104 (or A3 .def_66))) (let ((.def_105 (= A15 A23))) (let ((.def_106 (not .def_105))) (let ((.def_107 (and .def_106 .def_104))) (let ((.def_108 (or .def_107 .def_103))) (let ((.def_109 (not .def_108))) (let ((.def_110 (or .def_109 .def_98))) (let ((.def_111 (and .def_110 .def_86))) (let ((.def_112 (or .def_111 .def_58))) (let ((.def_113 (not .def_112))) .def_113)))))))))))))))))))))))))))))))))))))))))))))))))))))))))))))))))))))))))))))))))))))))))))))))))))))))))))))))))))
(check-sat)
